NAME : TSP_INST.7826702.tour
COMMENT : Length = 7826702
COMMENT : Found by LKH [Keld Helsgaun] Sat Oct 18 11:07:55 2025
TYPE : TOUR
DIMENSION : 100
TOUR_SECTION
1
77
37
74
27
61
12
26
29
35
33
93
22
80
76
82
24
95
8
59
88
78
65
45
41
13
52
98
5
16
11
75
72
6
68
62
32
67
99
79
39
86
23
87
21
71
19
18
53
2
40
66
51
54
31
50
20
4
84
49
25
46
15
28
63
73
60
69
70
89
10
43
57
90
7
34
94
85
48
100
47
92
97
56
55
42
58
96
3
17
81
38
36
14
44
30
64
9
91
83
-1
EOF
